0 4038
1 3919
2 3537
3 3147
4 2810
5 2810
6 2810
7 2695
8 2695
9 2601
10 2601
11 2601
12 2483
13 2483
14 2483
15 2483
16 2483
17 2418
18 2418
19 2418
20 2360
21 2309
22 2294
23 2294
24 2294
25 2294
26 2294
27 2294
28 2294
29 2294
30 2294
31 2294
32 2294
33 2294
34 2146
35 2146
36 2146
37 2116
38 2116
39 2073
40 2073
41 1912
42 1864
43 1864
44 1864
45 1864
46 1864
47 1841
48 1841
49 1841
50 1839
51 1839
52 1839
53 1839
54 1839
55 1822
56 1822
57 1783
58 1747
59 1747
60 1734
61 1734
62 1707
63 1707
64 1707
65 1707
66 1707
67 1707
68 1698
69 1676
70 1659
71 1655
72 1655
73 1639
74 1639
75 1639
76 1639
77 1638
78 1638
79 1605
80 1605
81 1605
82 1605
83 1605
84 1605
85 1560
86 1560
87 1560
88 1560
89 1528
90 1503
91 1503
92 1503
93 1503
94 1503
95 1499
96 1469
97 1465
98 1465
99 1462
100 1462
101 1462
102 1462
103 1462
104 1434
105 1434
106 1434
107 1434
108 1434
109 1434
110 1434
111 1434
112 1434
113 1434
114 1434
115 1434
116 1434
117 1434
118 1434
119 1434
120 1401
121 1401
122 1401
123 1391
124 1391
125 1391
126 1391
127 1391
128 1391
129 1391
130 1391
131 1385
132 1385
133 1383
134 1383
135 1383
136 1382
137 1382
138 1346
139 1346
140 1346
141 1346
142 1346
143 1346
144 1346
145 1346
146 1346
147 1346
148 1346
149 1346
150 1346
151 1346
152 1346
153 1346
154 1346
155 1346
156 1346
157 1342
158 1342
159 1342
160 1342
161 1342
162 1342
163 1342
164 1342
165 1342
166 1337
167 1337
168 1337
169 1336
170 1336
171 1334
172 1334
173 1310
174 1310
175 1310
176 1310
177 1310
178 1310
179 1310
180 1310
181 1310
182 1310
183 1299
184 1299
185 1299
186 1299
187 1299
188 1299
189 1299
190 1299
191 1299
192 1299
193 1299
194 1299
195 1299
196 1299
197 1299
198 1299
199 1299
200 1299
201 1299
202 1299
203 1294
204 1294
205 1294
206 1293
207 1293
208 1293
209 1293
210 1293
211 1293
212 1293
213 1293
214 1293
215 1293
216 1293
217 1293
218 1293
219 1287
220 1287
221 1287
222 1258
223 1258
224 1258
225 1258
226 1258
227 1258
228 1257
229 1257
230 1257
231 1257
232 1257
233 1257
234 1257
235 1257
236 1257
237 1257
238 1257
239 1257
240 1255
241 1255
242 1255
243 1234
244 1234
245 1234
246 1234
247 1234
248 1234
249 1234
250 1234
251 1234
252 1234
253 1229
254 1229
255 1229
256 1229
257 1229
258 1229
259 1229
260 1229
261 1229
262 1229
263 1229
264 1229
265 1229
266 1229
267 1229
268 1229
269 1229
270 1229
271 1229
272 1229
273 1229
274 1229
275 1228
276 1228
277 1228
278 1197
279 1197
280 1197
281 1197
282 1197
283 1197
284 1197
285 1197
286 1197
287 1197
288 1197
289 1197
290 1197
291 1197
292 1197
293 1197
294 1197
295 1197
296 1197
297 1197
298 1197
299 1194
300 1194
301 1194
302 1194
303 1194
304 1194
305 1194
306 1194
307 1194
308 1172
309 1172
310 1172
311 1172
312 1172
313 1172
314 1169
315 1169
316 1169
317 1169
318 1169
319 1169
320 1169
321 1169
322 1169
323 1169
324 1169
325 1169
326 1169
327 1169
328 1169
329 1169
330 1169
331 1169
332 1169
333 1169
334 1169
335 1169
336 1169
337 1169
338 1169
339 1169
340 1169
341 1169
342 1169
343 1169
344 1169
345 1169
346 1169
347 1169
348 1169
349 1169
350 1169
351 1169
352 1169
353 1169
354 1169
355 1169
356 1169
357 1169
358 1169
359 1169
360 1169
361 1169
362 1169
363 1169
364 1169
365 1169
366 1169
367 1169
368 1169
369 1147
370 1147
371 1147
372 1147
373 1147
374 1147
375 1147
376 1147
377 1147
378 1147
379 1147
380 1147
381 1147
382 1147
383 1147
384 1147
385 1147
386 1147
387 1147
388 1147
389 1147
390 1146
391 1146
392 1146
393 1146
394 1146
395 1146
396 1146
397 1146
398 1146
399 1146
400 1146
401 1146
402 1146
403 1146
404 1146
405 1146
406 1146
407 1146
408 1146
409 1146
410 1146
411 1146
412 1146
413 1146
414 1146
415 1146
416 1146
417 1146
418 1146
419 1146
420 1146
421 1146
422 1146
423 1146
424 1146
425 1146
426 1146
427 1146
428 1146
429 1146
430 1146
431 1146
432 1146
433 1146
434 1146
435 1146
436 1146
437 1146
438 1146
439 1146
440 1146
441 1146
442 1146
443 1146
444 1146
445 1146
446 1146
447 1146
448 1146
449 1146
450 1146
451 1146
452 1146
453 1146
454 1146
455 1146
456 1146
457 1146
458 1146
459 1146
460 1146
461 1146
462 1146
463 1146
464 1146
465 1146
466 1146
467 1146
468 1146
469 1146
470 1146
471 1146
472 1146
473 1146
474 1146
475 1146
476 1146
477 1146
478 1146
479 1146
480 1146
481 1146
482 1146
483 1146
484 1146
485 1146
486 1146
487 1146
488 1146
489 1146
490 1146
491 1146
492 1146
493 1146
494 1146
495 1146
496 1146
497 1145
498 1145
499 1145
500 1145
501 1145
502 1145
503 1145
504 1145
505 1145
506 1145
507 1145
508 1145
509 1145
510 1145
511 1145
512 1145
513 1145
514 1145
515 1145
516 1145
517 1145
518 1145
519 1145
520 1145
521 1145
522 1145
523 1145
524 1145
525 1145
526 1145
527 1145
528 1145
529 1145
530 1145
531 1145
532 1145
533 1145
534 1145
535 1145
536 1145
537 1145
538 1145
539 1145
540 1145
541 1145
542 1145
543 1145
544 1145
545 1145
546 1145
547 1127
548 1127
549 1127
550 1127
551 1127
552 1127
553 1127
554 1127
555 1127
556 1127
557 1127
558 1127
559 1127
560 1127
561 1127
562 1127
563 1127
564 1127
565 1127
566 1127
567 1127
568 1127
569 1127
570 1127
571 1127
572 1127
573 1127
574 1127
575 1127
576 1127
577 1127
578 1127
579 1127
580 1127
581 1127
582 1127
583 1127
584 1127
585 1127
586 1127
587 1127
588 1127
589 1127
590 1127
591 1127
592 1127
593 1127
594 1127
595 1127
596 1127
597 1127
598 1127
599 1127
600 1127
601 1127
602 1127
603 1127
604 1127
605 1127
606 1127
607 1127
608 1127
609 1127
610 1127
611 1127
612 1127
613 1127
614 1127
615 1127
616 1127
617 1127
618 1127
619 1127
620 1127
621 1127
622 1127
623 1127
624 1127
625 1127
626 1127
627 1127
628 1127
629 1127
630 1127
631 1127
632 1127
633 1127
634 1127
635 1127
636 1127
637 1127
638 1127
639 1127
640 1127
641 1127
642 1127
643 1127
644 1127
645 1127
646 1127
647 1127
648 1127
649 1127
650 1127
651 1127
652 1127
653 1127
654 1127
655 1127
656 1127
657 1127
658 1127
659 1127
660 1127
661 1127
662 1127
663 1127
664 1127
665 1127
666 1127
667 1127
668 1127
669 1127
670 1127
671 1127
672 1127
673 1127
674 1127
675 1127
676 1127
677 1127
678 1127
679 1127
680 1127
681 1127
682 1127
683 1127
684 1127
685 1127
686 1127
687 1127
688 1127
689 1127
690 1127
691 1127
692 1127
693 1127
694 1127
695 1127
696 1127
697 1127
698 1127
699 1127
700 1127
701 1127
702 1127
703 1127
704 1127
705 1127
706 1127
707 1127
708 1127
709 1127
710 1127
711 1127
712 1127
713 1127
714 1127
715 1127
716 1127
717 1123
718 1123
719 1123
720 1123
721 1123
722 1123
723 1123
724 1123
725 1123
726 1123
727 1123
728 1123
729 1123
730 1123
731 1123
732 1123
733 1123
734 1123
735 1123
736 1123
737 1123
738 1123
739 1123
740 1123
741 1123
742 1123
743 1123
744 1123
745 1123
746 1123
747 1123
748 1123
749 1123
750 1123
751 1123
752 1123
753 1123
754 1123
755 1123
756 1123
757 1123
758 1123
759 1123
760 1123
761 1123
762 1123
763 1123
764 1123
765 1123
766 1123
767 1123
768 1123
769 1123
770 1123
771 1123
772 1123
773 1123
774 1123
775 1123
776 1123
777 1123
778 1123
779 1123
780 1123
781 1123
782 1123
783 1123
784 1123
785 1123
786 1123
787 1123
788 1123
789 1123
790 1123
791 1123
792 1123
793 1123
794 1123
795 1123
796 1123
797 1123
798 1123
799 1123
800 1123
801 1123
802 1123
803 1123
804 1123
805 1123
806 1123
807 1123
808 1123
809 1123
810 1123
811 1123
812 1123
813 1123
814 1123
815 1123
816 1123
817 1122
818 1122
819 1122
820 1122
821 1122
822 1122
823 1122
824 1122
825 1122
826 1122
827 1122
828 1122
829 1122
830 1122
831 1122
832 1122
833 1122
834 1122
835 1122
836 1122
837 1122
838 1122
839 1122
840 1122
841 1122
842 1122
843 1122
844 1122
845 1122
846 1122
847 1122
848 1122
849 1122
850 1122
851 1122
852 1122
853 1122
854 1122
855 1122
856 1122
857 1122
858 1122
859 1122
860 1122
861 1122
862 1122
863 1122
864 1122
865 1122
866 1122
867 1122
868 1122
869 1122
870 1122
871 1122
872 1122
873 1122
874 1122
875 1122
876 1122
877 1122
878 1122
879 1122
880 1122
881 1122
882 1122
883 1122
884 1122
885 1122
886 1122
887 1122
888 1122
889 1122
890 1122
891 1122
892 1122
893 1122
894 1122
895 1122
896 1122
897 1122
898 1122
899 1122
900 1122
901 1122
902 1122
903 1122
904 1122
905 1122
906 1122
907 1122
908 1122
909 1122
910 1122
911 1122
912 1122
913 1122
914 1122
915 1122
916 1122
917 1122
918 1122
919 1122
920 1122
921 1122
922 1122
923 1122
924 1122
925 1122
926 1122
927 1122
928 1121
929 1121
930 1121
931 1121
932 1121
933 1121
934 1121
935 1121
936 1121
937 1121
938 1121
939 1121
940 1121
941 1121
942 1121
943 1121
944 1121
945 1121
946 1121
947 1121
948 1121
949 1121
950 1121
951 1121
952 1121
953 1121
954 1121
955 1121
956 1121
957 1121
958 1121
959 1121
960 1121
961 1121
962 1121
963 1121
964 1121
965 1121
966 1121
967 1121
968 1121
969 1121
970 1121
971 1121
972 1121
973 1121
974 1121
975 1121
976 1121
977 1121
978 1121
979 1121
980 1121
981 1121
982 1121
983 1121
984 1121
985 1121
986 1121
987 1121
988 1121
989 1121
990 1121
991 1121
992 1121
993 1121
994 1121
995 1121
996 1121
997 1121
998 1121
999 1121
Best: [[8,14,32,35,18,19],
       [17,26,31,16,33,28],
       [5,11,12,23,24,29,3,6,21],
       [15,2,4,9,37,30],
       [20,27,13,36],
       [7,34,10,22,25]], fitness: 1121
